data;


param d:= 100;
param r:=5;
param p:=0.900000;
param M:=1000;
param U:=
         1         1       -1.133815e-01
         2         1        2.614975e+00
         3         1        8.321914e-01
         4         1       -4.930165e-01
         5         1       -1.137617e-01
         6         1       -8.714527e-01
         7         1       -2.142408e+00
         8         1       -6.491740e-02
         9         1       -3.583382e-01
        10         1        2.449170e-01
        11         1       -1.217703e+00
        12         1       -1.966212e-02
        13         1        3.329828e-01
        14         1        6.277501e-01
        15         1        6.832641e-01
        16         1        3.182496e-02
        17         1       -1.483636e+00
        18         1        2.812903e-01
        19         1       -7.027556e-02
        20         1       -3.727186e-01
        21         1        3.294452e-01
        22         1        6.286424e-01
        23         1        1.122579e-01
        24         1        1.309736e+00
        25         1       -3.540646e-01
        26         1       -7.453182e-01
        27         1       -8.454838e-01
        28         1        4.035452e-02
        29         1        6.436744e-02
        30         1       -6.000923e-01
        31         1        1.040340e+00
        32         1        7.331047e-01
        33         1       -8.513211e-01
        34         1       -6.873295e-01
        35         1       -6.510420e-01
        36         1        1.908766e+00
        37         1        1.263923e+00
        38         1       -1.224680e+00
        39         1       -7.031714e-01
        40         1       -2.373099e+00
        41         1        7.183234e-02
        42         1       -3.358192e-01
        43         1        1.868965e+00
        44         1        9.868916e-02
        45         1       -1.042141e+00
        46         1        5.342632e-01
        47         1       -3.361535e-01
        48         1        7.370253e-01
        49         1        4.140366e-01
        50         1        3.361803e+00
        51         1        1.938289e-01
        52         1        1.463342e-01
        53         1        2.364893e-01
        54         1       -6.538472e-01
        55         1       -1.234971e-01
        56         1        1.873249e-02
        57         1       -7.168971e-01
        58         1       -9.423715e-01
        59         1       -4.127018e-01
        60         1       -1.222436e+00
        61         1        4.808515e-01
        62         1        1.605414e+00
        63         1       -9.657300e-02
        64         1       -1.414514e+00
        65         1       -9.430028e-01
        66         1        7.816946e-01
        67         1       -2.441361e-01
        68         1        2.829644e-01
        69         1        1.188319e-01
        70         1        6.083201e-01
        71         1       -8.787911e-01
        72         1        5.010047e-02
        73         1       -3.038169e+00
        74         1       -1.191913e+00
        75         1        3.386835e-01
        76         1        1.341520e+00
        77         1        7.813628e-01
        78         1        1.044747e-01
        79         1        1.071119e-01
        80         1       -2.978118e-01
        81         1        2.494835e-01
        82         1        2.060666e-01
        83         1       -1.041061e+00
        84         1       -7.883266e-01
        85         1       -2.637765e-01
        86         1       -4.562793e-01
        87         1       -7.100225e-01
        88         1        7.149094e-01
        89         1        3.139241e-01
        90         1       -8.497145e-01
        91         1        7.394899e-01
        92         1        1.373452e+00
        93         1       -9.060232e-01
        94         1       -7.665834e-01
        95         1       -1.518048e+00
        96         1       -3.322944e-01
        97         1       -1.010875e+00
        98         1        8.603268e-01
        99         1        3.674345e-01
       100         1       -1.134437e-01
         1         2        7.826830e-01
         2         2       -9.080855e-01
         3         2       -1.177237e+00
         4         2        5.354742e-01
         5         2       -1.388330e+00
         6         2        8.576970e-01
         7         2        1.538183e+00
         8         2        7.713696e-01
         9         2        2.405381e-01
        10         2        1.111728e-01
        11         2        4.861659e-02
        12         2       -1.643600e-01
        13         2       -9.404721e-01
        14         2        3.304048e-01
        15         2        4.312868e-01
        16         2        3.031360e-02
        17         2       -5.881658e-01
        18         2        1.299714e-01
        19         2       -6.830670e-01
        20         2       -1.269619e+00
        21         2        9.027083e-01
        22         2        9.692315e-01
        23         2        6.753573e-01
        24         2       -1.395200e+00
        25         2       -1.972449e+00
        26         2       -7.561775e-01
        27         2        1.206448e+00
        28         2       -6.280728e-01
        29         2       -5.869136e-01
        30         2       -2.686795e-01
        31         2       -8.600574e-01
        32         2       -1.283680e+00
        33         2       -8.367082e-01
        34         2        6.289118e-02
        35         2        1.348002e+00
        36         2       -7.760237e-01
        37         2        4.961358e-01
        38         2        2.730233e+00
        39         2        4.468918e-02
        40         2       -2.712188e-01
        41         2        9.890243e-01
        42         2        1.626161e+00
        43         2        1.046259e+00
        44         2       -1.485829e+00
        45         2       -1.126354e+00
        46         2       -7.708464e-01
        47         2       -6.260808e-01
        48         2       -1.802793e-01
        49         2       -9.413398e-02
        50         2       -1.340524e+00
        51         2       -3.701837e-01
        52         2        1.425687e+00
        53         2       -1.266351e+00
        54         2        1.561196e+00
        55         2        1.964853e+00
        56         2       -6.947136e-01
        57         2        8.413482e-01
        58         2       -1.939890e+00
        59         2        2.453995e-01
        60         2        1.134448e+00
        61         2       -4.827579e-02
        62         2        2.006492e+00
        63         2        5.308292e-01
        64         2       -1.370218e+00
        65         2        5.806467e-01
        66         2       -2.290675e-01
        67         2       -2.054247e+00
        68         2        9.030378e-01
        69         2       -1.401801e-01
        70         2       -1.121553e+00
        71         2       -1.991876e-01
        72         2        2.579610e-01
        73         2        1.122016e+00
        74         2        1.006514e-01
        75         2       -2.936564e-02
        76         2        1.031876e+00
        77         2        4.702944e-01
        78         2       -1.776881e-01
        79         2        1.808525e-01
        80         2        7.223496e-01
        81         2        6.037403e-01
        82         2       -6.183585e-01
        83         2        1.952489e+00
        84         2       -1.586767e+00
        85         2       -8.738527e-01
        86         2       -7.372041e-01
        87         2       -1.524154e+00
        88         2       -1.052037e-02
        89         2       -7.168737e-01
        90         2       -2.715561e+00
        91         2       -1.168349e+00
        92         2       -1.998831e-01
        93         2        6.521985e-01
        94         2       -1.052744e+00
        95         2       -1.797377e-01
        96         2        2.277089e-01
        97         2        9.024342e-01
        98         2       -8.368922e-01
        99         2        7.532597e-01
       100         2        5.655112e-01
         1         3       -5.562585e-01
         2         3       -3.650366e-01
         3         3       -4.425307e-01
         4         3       -1.485694e-01
         5         3        1.876587e+00
         6         3       -1.435746e-01
         7         3        2.620761e+00
         8         3       -1.367915e+00
         9         3       -9.291124e-03
        10         3       -1.547550e+00
        11         3       -1.419007e+00
        12         3        3.708708e-01
        13         3        2.587125e+00
        14         3       -9.125535e-01
        15         3        4.822742e-01
        16         3       -6.449408e-01
        17         3        1.225277e+00
        18         3        5.769079e-01
        19         3        1.009904e-01
        20         3        4.169926e-01
        21         3       -5.260395e-01
        22         3       -6.930424e-03
        23         3       -1.568804e+00
        24         3        1.486410e-01
        25         3       -2.106886e+00
        26         3        5.438133e-01
        27         3        1.041744e+00
        28         3       -8.543327e-01
        29         3        9.266564e-01
        30         3        5.505607e-01
        31         3       -1.703286e+00
        32         3        2.110921e-01
        33         3        1.509692e+00
        34         3       -6.906000e-01
        35         3       -3.234386e-01
        36         3       -1.272045e+00
        37         3       -7.077299e-01
        38         3       -3.375696e+00
        39         3        8.614475e-02
        40         3        8.327230e-01
        41         3        1.404551e-01
        42         3       -1.235791e+00
        43         3        1.528312e+00
        44         3       -8.638645e-01
        45         3       -2.186132e+00
        46         3       -2.876399e-01
        47         3        2.084339e+00
        48         3        1.882068e+00
        49         3       -7.475960e-01
        50         3       -1.417073e+00
        51         3        1.082313e+00
        52         3        1.009321e+00
        53         3        4.437067e-01
        54         3        3.078606e-01
        55         3       -5.802494e-01
        56         3       -1.322938e+00
        57         3        8.449847e-01
        58         3        1.320304e-02
        59         3        6.940967e-01
        60         3       -5.437602e-01
        61         3       -1.050280e+00
        62         3       -3.416229e-01
        63         3       -3.520919e-01
        64         3        1.227741e+00
        65         3        2.234580e-01
        66         3        9.443100e-01
        67         3        1.143166e+00
        68         3       -1.147400e-01
        69         3       -9.700687e-01
        70         3        3.603337e-01
        71         3        6.179178e-01
        72         3        6.723786e-01
        73         3        2.010331e+00
        74         3       -2.922184e-01
        75         3        1.812299e+00
        76         3        3.387494e-02
        77         3        2.266045e-01
        78         3       -1.166398e+00
        79         3       -3.927315e-02
        80         3       -7.662477e-01
        81         3        4.526596e-01
        82         3       -4.602830e-01
        83         3       -1.633078e+00
        84         3       -1.616068e-01
        85         3        1.639469e-01
        86         3       -7.744074e-01
        87         3       -2.703855e-01
        88         3        3.573718e-01
        89         3        4.349812e-01
        90         3        4.807901e-01
        91         3       -2.261864e-01
        92         3       -2.347785e+00
        93         3       -5.496473e-01
        94         3       -9.674956e-01
        95         3       -2.154258e+00
        96         3        1.772321e+00
        97         3        2.163408e-01
        98         3        5.640665e-01
        99         3       -6.441373e-01
       100         3        3.537587e-02
         1         4        5.170663e-01
         2         4       -1.124581e+00
         3         4        1.118357e+00
         4         4       -4.293649e-01
         5         4       -6.507836e-01
         6         4       -5.864490e-01
         7         4        1.917953e+00
         8         4        3.966570e-01
         9         4        2.968440e-01
        10         4        2.150729e+00
        11         4        2.786160e-01
        12         4        9.400841e-01
        13         4        3.288159e-01
        14         4       -9.613012e-02
        15         4        2.296883e-02
        16         4        5.173562e-01
        17         4        3.114851e-01
        18         4        4.999772e-01
        19         4        4.759275e-01
        20         4        8.988599e-02
        21         4       -1.154295e+00
        22         4       -7.935859e-01
        23         4       -1.047724e+00
        24         4       -4.124678e-01
        25         4       -2.653192e+00
        26         4       -5.655769e-01
        27         4        5.109129e-01
        28         4       -6.220753e-02
        29         4       -1.749186e+00
        30         4       -1.682838e+00
        31         4        1.821392e-01
        32         4        6.468147e-01
        33         4       -1.059482e+00
        34         4       -2.419500e+00
        35         4       -1.726446e+00
        36         4        1.527400e+00
        37         4        1.221114e+00
        38         4        2.298044e-01
        39         4       -8.808178e-01
        40         4       -3.640620e-01
        41         4       -2.619660e-01
        42         4        3.433224e-01
        43         4       -2.065905e-01
        44         4        5.120243e-01
        45         4       -1.686379e-01
        46         4        2.557142e-01
        47         4       -1.368496e+00
        48         4       -5.975253e-01
        49         4        1.850903e-01
        50         4        2.993197e-01
        51         4       -4.776324e-01
        52         4        1.892711e+00
        53         4       -4.915333e-01
        54         4        7.321751e-01
        55         4        1.347923e+00
        56         4        1.128347e+00
        57         4        2.426897e-01
        58         4       -3.243609e-01
        59         4        1.972057e+00
        60         4       -6.810038e-01
        61         4       -1.086333e+00
        62         4       -1.436111e+00
        63         4       -4.681242e-01
        64         4        1.090977e+00
        65         4       -9.202378e-01
        66         4       -8.403025e-01
        67         4       -3.318582e+00
        68         4        1.176666e+00
        69         4       -3.583391e-01
        70         4       -1.258139e-01
        71         4        5.118599e-01
        72         4       -3.630527e-01
        73         4       -7.809470e-01
        74         4        4.608518e-01
        75         4       -4.003823e-01
        76         4       -1.791335e+00
        77         4        6.545543e-01
        78         4       -6.871965e-01
        79         4        6.490409e-01
        80         4       -2.892280e-01
        81         4       -1.287502e+00
        82         4        3.283917e-01
        83         4       -2.763636e-01
        84         4       -2.891207e-02
        85         4        1.768516e+00
        86         4        1.871184e-01
        87         4        4.834124e-01
        88         4        7.615921e-01
        89         4       -2.694193e-04
        90         4        3.705225e-01
        91         4       -3.048094e-01
        92         4        1.246946e-01
        93         4        3.933630e-02
        94         4       -8.882435e-02
        95         4        1.877338e+00
        96         4       -1.097734e-01
        97         4       -1.751343e-01
        98         4       -1.845545e+00
        99         4        1.845400e+00
       100         4       -1.255572e+00
         1         5       -1.815225e+00
         2         5        9.636926e-01
         3         5       -6.690283e-02
         4         5        1.202306e+00
         5         5        8.556114e-01
         6         5        8.070682e-01
         7         5       -2.065103e+00
         8         5        1.370270e+00
         9         5        1.657134e+00
        10         5        3.770669e-01
        11         5       -1.056142e-02
        12         5       -3.604742e-01
        13         5       -9.219086e-01
        14         5       -9.132160e-01
        15         5        2.089203e+00
        16         5        7.282711e-01
        17         5       -7.311383e-01
        18         5        7.759933e-01
        19         5       -2.119840e-01
        20         5       -4.301549e-02
        21         5       -1.847138e+00
        22         5        2.141533e-01
        23         5       -1.316551e+00
        24         5        4.274057e-01
        25         5        6.698696e-01
        26         5        1.473666e-01
        27         5        4.556023e-01
        28         5        6.009536e-01
        29         5        4.690890e-01
        30         5        1.550014e+00
        31         5        1.846406e+00
        32         5       -9.900938e-01
        33         5        1.263118e+00
        34         5       -7.458267e-01
        35         5       -1.930812e-01
        36         5       -1.380472e+00
        37         5        2.357707e-02
        38         5       -6.768940e-01
        39         5        3.119871e-01
        40         5        1.708831e+00
        41         5        1.007233e+00
        42         5        1.360864e+00
        43         5       -3.745558e-02
        44         5       -9.720058e-01
        45         5       -1.067345e+00
        46         5        5.380272e-01
        47         5       -7.446898e-01
        48         5        1.296851e+00
        49         5        2.229469e+00
        50         5        6.297126e-01
        51         5        1.268434e+00
        52         5       -1.493626e+00
        53         5       -5.935195e-01
        54         5       -9.568838e-01
        55         5        7.875804e-01
        56         5       -1.766574e+00
        57         5       -3.599756e-01
        58         5        1.928376e+00
        59         5       -9.831064e-01
        60         5       -4.343508e-01
        61         5        1.005094e+00
        62         5       -1.062964e-01
        63         5        8.339490e-01
        64         5       -5.029975e-01
        65         5        5.259427e-01
        66         5        1.160072e+00
        67         5       -1.435634e-02
        68         5       -1.214275e-01
        69         5        9.716220e-01
        70         5        6.487786e-01
        71         5        1.798114e-01
        72         5        2.491670e-01
        73         5       -1.333630e+00
        74         5       -5.545531e-02
        75         5        6.400008e-01
        76         5       -2.217532e-01
        77         5        7.202557e-01
        78         5        1.582767e-01
        79         5        1.418469e+00
        80         5       -4.747841e-01
        81         5       -7.923723e-01
        82         5       -1.756689e+00
        83         5       -1.568013e-01
        84         5        3.589052e-01
        85         5        6.678706e-01
        86         5       -7.603738e-02
        87         5       -3.954913e-01
        88         5        8.424085e-01
        89         5        4.785907e-01
        90         5        1.484218e+00
        91         5        1.065647e+00
        92         5        1.497592e+00
        93         5       -8.694251e-01
        94         5        1.438800e+00
        95         5        7.923547e-01
        96         5        4.968556e-01
        97         5        5.845378e-01
        98         5       -3.621874e-01
        99         5        6.617704e-02
       100         5       -1.562319e+00
;

param theta:=
    1        9.846417e-01
    2        6.310131e-01
    3       -1.228642e+00
    4       -2.859450e+00
    5       -5.112508e-01
;
param X_true:=
    1        6.287938e-01
    2        5.217382e+00
    3       -2.731609e+00
    4        5.581899e-01
    5       -1.944524e+00
    6        9.447427e-01
    7       -8.788197e+00
    8        2.874659e-01
    9       -1.951118e+00
   10       -4.133466e+00
   11        9.428925e-03
   12       -2.897817e+00
   13       -4.021562e+00
   14        2.723095e+00
   15       -7.393766e-01
   16       -1.006705e+00
   17       -3.895414e+00
   18       -2.063804e+00
   19       -1.769632e+00
   20       -2.118233e+00
   21        5.715256e+00
   22        3.400427e+00
   23        6.160833e+00
   24        1.250186e+00
   25        8.161154e+00
   26       -2.419256e-01
   27       -3.043615e+00
   28        5.548918e-01
   29        3.061380e+00
   30        2.636015e+00
   31        9.243952e-01
   32       -1.815761e+00
   33       -9.071683e-01
   34        7.557152e+00
   35        5.534363e+00
   36       -4.771841e-01
   37       -1.046534e+00
   38        4.305498e+00
   39        1.502204e+00
   40       -3.470096e+00
   41        7.051811e-01
   42        5.150113e-01
   43        1.339640e+00
   44       -4.442613e-01
   45        1.924939e+00
   46       -8.023858e-01
   47        9.528106e-01
   48       -6.957765e-01
   49       -3.636348e-01
   50        2.929189e+00
   51       -7.896029e-01
   52       -4.904986e+00
   53        6.728586e-01
   54       -1.768996e+00
   55       -2.443509e+00
   56       -1.045259e+00
   57       -1.747373e+00
   58       -2.238273e+00
   59       -6.256782e+00
   60        2.306216e+00
   61        4.373000e+00
   62        7.463147e+00
   63        1.487472e+00
   64       -6.514225e+00
   65        1.569464e+00
   66        1.274395e+00
   67        6.455151e+00
   68       -2.247280e+00
   69        1.646590e+00
   70       -5.067451e-01
   71       -3.199237e+00
   72        4.262024e-01
   73       -1.936140e+00
   74       -2.081721e+00
   75       -1.146056e+00
   76        7.088130e+00
   77       -1.527835e+00
   78        3.225429e+00
   79       -2.303960e+00
   80        2.251819e+00
   81        4.082463e+00
   82        3.167737e-01
   83        2.947121e+00
   84       -1.555956e+00
   85       -6.444061e+00
   86       -5.488901e-01
   87       -2.646376e+00
   88       -2.292289e+00
   89       -9.581610e-01
   90       -5.000921e+00
   91        6.699578e-01
   92        2.923995e+00
   93        5.153015e-01
   94       -6.615604e-01
   95       -4.645012e+00
   96       -2.314496e+00
   97       -3.932431e-01
   98        5.004895e+00
   99       -3.807602e+00
  100        4.538958e+00
;
param X:=
    1        6.287938e-01
    2       -1.117097e+00
    3       -1.100165e+00
    4       -2.794272e-01
    5       -1.944524e+00
    6        3.397063e-01
    7        6.523986e-01
    8       -1.986899e+00
    9       -1.048195e+00
   10       -4.133466e+00
   11        1.175027e+00
   12       -6.536724e-01
   13       -2.354036e+00
   14        2.723095e+00
   15       -8.606818e-01
   16       -1.006705e+00
   17       -2.146892e+00
   18       -2.032961e-01
   19        6.512519e-01
   20        8.019228e-01
   21        4.937481e-01
   22        4.069052e-01
   23        1.238454e+00
   24       -2.865187e-01
   25       -1.156138e-01
   26       -1.629117e+00
   27       -8.986589e-01
   28       -1.746960e+00
   29        7.795903e-02
   30       -2.026971e+00
   31        9.243952e-01
   32       -1.623250e+00
   33        2.109189e+00
   34        2.478514e-01
   35       -3.057613e-01
   36       -4.771841e-01
   37       -4.067084e-01
   38        1.178634e+00
   39        1.244207e+00
   40        9.290008e-01
   41       -4.795606e-01
   42        7.448255e-02
   43        1.965989e-01
   44       -2.595471e-01
   45        1.924939e+00
   46       -2.312852e+00
   47       -1.114421e+00
   48        1.455125e+00
   49       -2.249744e-01
   50       -7.933000e-02
   51        3.726152e-01
   52       -1.092756e-01
   53        1.185999e+00
   54       -3.185055e-02
   55       -9.494154e-01
   56       -1.070038e+00
   57       -1.247755e-01
   58       -1.391559e+00
   59       -1.528354e+00
   60       -9.665225e-01
   61       -4.177207e-01
   62       -1.261787e+00
   63       -1.380466e+00
   64       -8.775684e-01
   65        5.820425e-01
   66       -1.120429e-01
   67        2.244900e+00
   68        1.094451e-01
   69        3.801461e-01
   70       -1.163653e+00
   71        1.317433e+00
   72       -1.299881e+00
   73        1.020439e+00
   74        7.373346e-02
   75       -9.604524e-01
   76       -9.661284e-01
   77        1.091226e+00
   78       -3.015920e-01
   79       -1.147091e+00
   80        8.442032e-01
   81       -1.576376e-02
   82        5.426037e-01
   83        1.503913e+00
   84       -1.623996e+00
   85        3.792214e-01
   86       -4.728656e-01
   87        2.478613e-01
   88        1.113869e+00
   89        1.200353e-01
   90        1.105675e+00
   91       -4.438104e-01
   92       -4.173189e-01
   93       -7.894310e-01
   94        4.352503e-01
   95        1.198794e-01
   96       -7.103462e-01
   97       -8.626692e-01
   98        5.004895e+00
   99       -3.807602e+00
  100       -1.714552e-02
;
param outliervec:=
    1    0
    2    1
    3    1
    4    1
    5    0
    6    1
    7    1
    8    1
    9    1
   10    0
   11    1
   12    1
   13    1
   14    0
   15    1
   16    0
   17    1
   18    1
   19    1
   20    1
   21    1
   22    1
   23    1
   24    1
   25    1
   26    1
   27    1
   28    1
   29    1
   30    1
   31    0
   32    1
   33    1
   34    1
   35    1
   36    0
   37    1
   38    1
   39    1
   40    1
   41    1
   42    1
   43    1
   44    1
   45    0
   46    1
   47    1
   48    1
   49    1
   50    1
   51    1
   52    1
   53    1
   54    1
   55    1
   56    1
   57    1
   58    1
   59    1
   60    1
   61    1
   62    1
   63    1
   64    1
   65    1
   66    1
   67    1
   68    1
   69    1
   70    1
   71    1
   72    1
   73    1
   74    1
   75    1
   76    1
   77    1
   78    1
   79    1
   80    1
   81    1
   82    1
   83    1
   84    1
   85    1
   86    1
   87    1
   88    1
   89    1
   90    1
   91    1
   92    1
   93    1
   94    1
   95    1
   96    1
   97    1
   98    0
   99    0
  100    1
;